FAPbI3
1.0
6.4984999999999999 0.0000000000000000 0.0000000000000000
0.0000000000000000 6.4984999999999999 0.0000000000000000
0.0000000000000000 0.0000000000000000 6.4984999999999999
C N H Pb I
1 2 5 1 3
Direct
  0.5000000000  0.5000000000  0.5646721958  C1
  0.6798492041  0.5000000000  0.4726731348  N1
  0.3201507959  0.5000000000  0.4726731348  N2
  0.5000000000  0.5000000000  0.7323687529  H1
  0.8088703504  0.5000000000  0.5616681963  H2
  0.6980646918  0.5000000000  0.3166903651  H3
  0.3019353082  0.5000000000  0.3166903651  H4
  0.1911296496  0.5000000000  0.5616681963  H5
  0.0000000000  0.0000000000  0.0000000000  Pb
  0.5000000000  0.0000000000   0.0000000000 I1
  0.0000000000  0.5000000000   0.0000000000 I2
  0.0000000000  0.0000000000   0.5000000000 I3
