C  N  H  Pb I 
 1.0000000000000000
     8.9213154594402599    0.0000000000000000    0.0000000000000000
     0.0000000000000000    8.6823206481090391    0.0000000000000000
     0.0000000000000000    0.0000000000000000   12.6570443525842204
 C   N   H   Pb  I  
   4   8  20   4  12
Direct
  0.5109656864707942  0.0417396999475825  0.2469504720965258
  0.0109656798456883  0.4582603041079861  0.7469504694215429
  0.9890343090571955  0.5417396976314058  0.2469504785184584
  0.4890343234672108  0.9582603012152892  0.7469504741274718
  0.5718527231288862  0.9304909642523851  0.1915636933418788
  0.0718527199759718  0.5695090359425357  0.6915636993842572
  0.1288443063800960  0.5874529896920160  0.2384362721981108
  0.6288443121605520  0.9125470077810230  0.7384362759940480
  0.3711556925308191  0.0874529946234438  0.2384362740162671
  0.8711556933169080  0.4125470105263476  0.7384362776081153
  0.9281472757794879  0.4304909567941877  0.1915637009153819
  0.4281472869926267  0.0695090316412667  0.6915637021625308
  0.5814695559340115  0.1003337811935413  0.3051086130108152
  0.0814695520523036  0.3996662344595983  0.8051086185485187
  0.9185304462981486  0.6003337729443450  0.3051086220773411
  0.4185304568356052  0.8996662376968390  0.8051086287902884
  0.6838683536652370  0.9090539780098539  0.2001679886044045
  0.1838683525744669  0.5909460232854248  0.7001679867702347
  0.1695504726808368  0.6695759024146063  0.2886806097388964
  0.6695504811857782  0.8304240928956520  0.7886806121494402
  0.5131221670322802  0.8726227900483955  0.1344296119078501
  0.0131221704722766  0.6273772140311512  0.6344296100043453
  0.2026215306211136  0.5375642578150249  0.1873946959766238
  0.7026215449050213  0.9624357347685317  0.6873946937643456
  0.2973784601872229  0.0375642515218740  0.1873947010461310
  0.7973784548445133  0.4624357481070062  0.6873946990571213
 -0.0131221758999978  0.3726227828950699  0.1344296189072306
  0.4868778311938252  0.1273772075899403  0.6344296113261308
  0.3304495248425878  0.1695759103179779  0.2886806100765594
  0.8304495263527295  0.3304240889874200  0.7886806083692949
  0.8161316438754587  0.4090539695348201  0.2001680008418230
  0.3161316530763249  0.0909460210211994  0.7001679926641119
  0.5038084678202417  0.4860137894608619  0.9823204217215675
  0.0038084741507487  0.0139862145418368  0.4823204193335019
  0.9961915288699690  0.9860137869804211  0.9823204240085237
  0.4961915342893359  0.5139862157810804  0.4823204210713477
  0.7980920517666529  0.7100089485919098  0.5028804405820814
  0.9609649172206154  0.9955399562457775  0.2328491919522412
  0.6995187358926589  0.1868577730552892  0.9605099615143354
  0.2019079286752396  0.2899910859928745  0.0028804411470308
  0.1995187502562614  0.3131422151694159  0.4605099691770695
  0.3004812523583775  0.8131422224580508  0.4605099716615062
  0.8004812685606827  0.6868577714011607  0.9605099662502252
  0.7019079467383114  0.2100089453924782  0.5028804378649270
  0.4609649071240896  0.5044600179714386  0.7328491937779559
  0.0390350834655415  0.0044600302505690  0.7328491896478652
  0.2980920681358540  0.7899910782567972  0.0028804380897323
  0.5390350728394406  0.4955399547562945  0.2328491891839642
