C  N  H  Pb I 
 1.0000000000000000
     8.9710000000000001    0.0000000000000000    0.0000000000000000
     0.0000000000000000    8.9710000000000001    0.0000000000000000
     0.0000000000000000    0.0000000000000000    6.3426999999999998
 C   N   H   Pb  I  
   2   4  10   2   6
Direct
  0.5000018554397705  0.5000022537173076  0.5732140309241077
  0.0000007410375672 -0.0000012353894070  0.5732132924884825
  0.5922160282500073  0.5922164411425808  0.4791581021704781
  0.4077828256087259  0.4077832152374490  0.4791589087050588
  0.0922175871650399  0.9077820218214522  0.4791585827678567
  0.9077828272521852  0.0922167582394122  0.4791588169260770
  0.5000002811686747  0.5000006754111777  0.7452024965877880
  0.6588100933900084  0.6588104938827275  0.5690571669515898
  0.6022203356283138  0.6022206803294231  0.3195714023461211
  0.3977797662142379  0.3977800883092407  0.3195726035185760
  0.3411905620686967  0.3411909316432695  0.5690587990500694
  0.0000003891983267 -0.0000008613648130  0.7452021106966982
  0.1588095352697982  0.8411900398804744  0.5690555792753658
  0.1022204398471857  0.8977793343765005  0.3195704645266070
  0.8977794346442318  0.1022203125466263  0.3195712233065365
  0.8411902230273366  0.1588093072904955  0.5690584089798699
 -0.0000003297167096  0.4999998411152107 -0.0123217092866398
  0.4999997010236369  0.0000000324883932 -0.0123217132262177
 -0.0000000897965121  0.4999996263576140  0.4868432264677507
  0.4999999142446662  0.0000003677771648  0.4868432147962333
  0.2251100796974147  0.2251104079933332 -0.0147147320269070
  0.2748888221989268  0.7251106996505924 -0.0147153232763097
  0.7251101278539229  0.2748893917881822 -0.0147149142040477
  0.7748888492845512  0.7748891757555935 -0.0147153576651409
